NAME          ClpDefau  FREE
ROWS
 N  OBJROW
 G  HG1_R1
 G  HG1_R3
 G  HG1_R5
 G  HG1_R7
 G  HG1_R9
 G  HG1_R11
 G  HG1_R13
 G  HG1_R15
 G  HG1_R17
 G  HG1_R19
 G  HG2_R1
 G  HG2_R3
 G  HG2_R5
 G  HG2_R7
 G  HG2_R9
 G  HG2_R11
 G  HG2_R13
 G  HG2_R15
 G  HG2_R17
 G  HG2_R19
 G  VG1_R1
 G  VG1_R3
 G  VG1_R5
 G  VG1_R7
 G  VG1_R9
 G  VG1_R11
 G  VG1_R13
 G  VG1_R15
 G  VG1_R17
 G  VG1_R19
 L  WL_L1_R07_C27
 L  WL_L1_R11_C27
 L  WL_L1_R15_C27
 G  GREATER_SUM
COLUMNS
    W1 OBJROW 1.          
    W1 HG1_R1   -1.5705e-7
    W1 HG1_R3   -1.5655e-7
    W1 HG1_R5    -1.552e-7
    W1 HG1_R7   -1.5315e-7
    W1 HG1_R9    -1.501e-7
    W1 HG1_R11   -1.4665e-7
    W1 HG1_R13     -1.43e-7
    W1 HG1_R15   -1.3995e-7
    W1 HG1_R17   -1.3715e-7
    W1 HG1_R19   -1.3575e-7
    W1 HG2_R1     -1.56e-7
    W1 HG2_R3   -1.5545e-7
    W1 HG2_R5    -1.541e-7
    W1 HG2_R7    -1.519e-7
    W1 HG2_R9   -1.4915e-7
    W1 HG2_R11    -1.457e-7
    W1 HG2_R13     -1.42e-7
    W1 HG2_R15   -1.3835e-7
    W1 HG2_R17    -1.362e-7
    W1 HG2_R19    -1.348e-7
    W1 VG1_R1   -1.7234e-6
    W1 VG1_R3   -1.7178e-6
    W1 VG1_R5   -1.7082e-6
    W1 VG1_R7   -1.7028e-6
    W1 VG1_R9   -1.6474e-6
    W1 VG1_R11     -1.61e-6
    W1 VG1_R13   -1.5856e-6
    W1 VG1_R15   -1.6078e-6
    W1 VG1_R17   -1.5244e-6
    W1 VG1_R19   -1.4896e-6
    W1 WL_L1_R07_C27 -0.00012004 
    W1 WL_L1_R11_C27 -0.00011574 
    W1 WL_L1_R15_C27 -0.0001078  
    W1 GREATER_SUM 1.          
    W2 OBJROW 1.          
    W2 HG1_R1    -1.468e-7
    W2 HG1_R3   -1.4725e-7
    W2 HG1_R5   -1.4805e-7
    W2 HG1_R7    -1.489e-7
    W2 HG1_R9   -1.4915e-7
    W2 HG1_R11    -1.487e-7
    W2 HG1_R13   -1.4745e-7
    W2 HG1_R15    -1.461e-7
    W2 HG1_R17    -1.443e-7
    W2 HG1_R19   -1.4335e-7
    W2 HG2_R1   -1.4585e-7
    W2 HG2_R3   -1.4625e-7
    W2 HG2_R5     -1.47e-7
    W2 HG2_R7    -1.477e-7
    W2 HG2_R9    -1.482e-7
    W2 HG2_R11   -1.4775e-7
    W2 HG2_R13   -1.4645e-7
    W2 HG2_R15    -1.444e-7
    W2 HG2_R17    -1.433e-7
    W2 HG2_R19   -1.4235e-7
    W2 VG1_R1   -1.6112e-6
    W2 VG1_R3   -1.6162e-6
    W2 VG1_R5   -1.6298e-6
    W2 VG1_R7    -1.656e-6
    W2 VG1_R9   -1.6368e-6
    W2 VG1_R11   -1.6324e-6
    W2 VG1_R13    -1.635e-6
    W2 VG1_R15   -1.6782e-6
    W2 VG1_R17   -1.6034e-6
    W2 VG1_R19    -1.573e-6
    W2 WL_L1_R07_C27 -0.0001167  
    W2 WL_L1_R11_C27 -0.0001174  
    W2 WL_L1_R15_C27 -0.0001126  
    W2 GREATER_SUM 1.          
    W3 OBJROW 1.          
    W3 HG1_R1    -1.449e-7
    W3 HG1_R3   -1.4605e-7
    W3 HG1_R5    -1.484e-7
    W3 HG1_R7   -1.5095e-7
    W3 HG1_R9    -1.523e-7
    W3 HG1_R11   -1.5175e-7
    W3 HG1_R13    -1.491e-7
    W3 HG1_R15    -1.456e-7
    W3 HG1_R17   -1.4195e-7
    W3 HG1_R19   -1.3965e-7
    W3 HG2_R1   -1.4385e-7
    W3 HG2_R3    -1.451e-7
    W3 HG2_R5   -1.4735e-7
    W3 HG2_R7    -1.497e-7
    W3 HG2_R9    -1.512e-7
    W3 HG2_R11   -1.5065e-7
    W3 HG2_R13   -1.4805e-7
    W3 HG2_R15     -1.44e-7
    W3 HG2_R17   -1.4085e-7
    W3 HG2_R19    -1.387e-7
    W3 VG1_R1   -1.5938e-6
    W3 VG1_R3   -1.6074e-6
    W3 VG1_R5   -1.6376e-6
    W3 VG1_R7    -1.683e-6
    W3 VG1_R9   -1.6754e-6
    W3 VG1_R11   -1.6694e-6
    W3 VG1_R13   -1.6568e-6
    W3 VG1_R15    -1.677e-6
    W3 VG1_R17   -1.5804e-6
    W3 VG1_R19   -1.5364e-6
    W3 WL_L1_R07_C27 -0.00011832 
    W3 WL_L1_R11_C27 -0.00011986 
    W3 WL_L1_R15_C27 -0.00011222 
    W3 GREATER_SUM 1.          
    W4 OBJROW 1.          
    W4 HG1_R1    -1.362e-7
    W4 HG1_R3   -1.3755e-7
    W4 HG1_R5    -1.403e-7
    W4 HG1_R7   -1.4415e-7
    W4 HG1_R9    -1.479e-7
    W4 HG1_R11    -1.509e-7
    W4 HG1_R13   -1.5245e-7
    W4 HG1_R15   -1.5285e-7
    W4 HG1_R17    -1.519e-7
    W4 HG1_R19   -1.5125e-7
    W4 HG2_R1    -1.353e-7
    W4 HG2_R3    -1.366e-7
    W4 HG2_R5   -1.3935e-7
    W4 HG2_R7   -1.4295e-7
    W4 HG2_R9   -1.4695e-7
    W4 HG2_R11    -1.499e-7
    W4 HG2_R13   -1.5135e-7
    W4 HG2_R15    -1.511e-7
    W4 HG2_R17   -1.5085e-7
    W4 HG2_R19   -1.5025e-7
    W4 VG1_R1    -1.495e-6
    W4 VG1_R3   -1.5098e-6
    W4 VG1_R5   -1.5448e-6
    W4 VG1_R7    -1.603e-6
    W4 VG1_R9    -1.623e-6
    W4 VG1_R11   -1.6564e-6
    W4 VG1_R13   -1.6898e-6
    W4 VG1_R15   -1.7554e-6
    W4 VG1_R17   -1.6876e-6
    W4 VG1_R19   -1.6598e-6
    W4 WL_L1_R07_C27 -0.0001129  
    W4 WL_L1_R11_C27 -0.0001192  
    W4 WL_L1_R15_C27 -0.00011788 
    W4 GREATER_SUM 1.          
    W5 OBJROW 1.          
    W5 HG1_R1    -2.701e-7
    W5 HG1_R3    -2.719e-7
    W5 HG1_R5    -2.758e-7
    W5 HG1_R7    -2.817e-7
    W5 HG1_R9    -2.885e-7
    W5 HG1_R11   -2.9605e-7
    W5 HG1_R13   -3.0305e-7
    W5 HG1_R15    -3.096e-7
    W5 HG1_R17   -3.1365e-7
    W5 HG1_R19   -3.1635e-7
    W5 HG2_R1   -2.6835e-7
    W5 HG2_R3   -2.7005e-7
    W5 HG2_R5    -2.739e-7
    W5 HG2_R7    -2.794e-7
    W5 HG2_R9   -2.8665e-7
    W5 HG2_R11   -2.9405e-7
    W5 HG2_R13   -3.0095e-7
    W5 HG2_R15    -3.061e-7
    W5 HG2_R17   -3.1145e-7
    W5 HG2_R19    -3.142e-7
    W5 VG1_R1   -2.9612e-6
    W5 VG1_R3    -2.981e-6
    W5 VG1_R5   -3.0326e-6
    W5 VG1_R7   -3.1292e-6
    W5 VG1_R9   -3.1624e-6
    W5 VG1_R11    -3.245e-6
    W5 VG1_R13   -3.3552e-6
    W5 VG1_R15   -3.5518e-6
    W5 VG1_R17   -3.4794e-6
    W5 VG1_R19    -3.466e-6
    W5 WL_L1_R07_C27 -0.00022056 
    W5 WL_L1_R11_C27 -0.0002336  
    W5 WL_L1_R15_C27 -0.00023884 
    W5 GREATER_SUM 1.          
    I1 OBJROW  -1.        
    I1 HG1_R1    1.8095e-7
    I1 HG1_R3     2.459e-7
    I1 HG1_R5     4.906e-7
    I1 HG1_R7    1.1264e-6
    I1 HG1_R9    4.7835e-7
    I1 HG1_R11     2.174e-7
    I1 HG1_R13    1.2485e-7
    I1 HG1_R15      8.67e-8
    I1 HG1_R17     6.905e-8
    I1 HG1_R19     6.135e-8
    I1 HG2_R1     1.797e-7
    I1 HG2_R3    2.4435e-7
    I1 HG2_R5    4.8735e-7
    I1 HG2_R7    1.0863e-6
    I1 HG2_R9    4.7525e-7
    I1 HG2_R11      2.16e-7
    I1 HG2_R13      1.24e-7
    I1 HG2_R15      8.58e-8
    I1 HG2_R17      6.85e-8
    I1 HG2_R19     6.095e-8
    I1 VG1_R1     1.996e-6
    I1 VG1_R3    2.7194e-6
    I1 VG1_R5      5.46e-6
    I1 VG1_R7   1.24746e-5
    I1 VG1_R9     5.308e-6
    I1 VG1_R11    2.4038e-6
    I1 VG1_R13    1.3902e-6
    I1 VG1_R15     9.992e-7
    I1 VG1_R17     7.688e-7
    I1 VG1_R19      6.75e-7
    I1 WL_L1_R07_C27 0.0014678799
    I1 WL_L1_R11_C27 0.00015612  
    I1 WL_L1_R15_C27     6.494e-5
    I1 GREATER_SUM  -1.        
    I2 OBJROW  -1.        
    I2 HG1_R1     8.385e-8
    I2 HG1_R3     9.485e-8
    I2 HG1_R5     1.286e-7
    I2 HG1_R7    2.1745e-7
    I2 HG1_R9    4.7455e-7
    I2 HG1_R11   1.11635e-6
    I2 HG1_R13     4.755e-7
    I2 HG1_R15       2.2e-7
    I2 HG1_R17     1.331e-7
    I2 HG1_R19     1.026e-7
    I2 HG2_R1      8.33e-8
    I2 HG2_R3     9.425e-8
    I2 HG2_R5    1.2775e-7
    I2 HG2_R7     2.158e-7
    I2 HG2_R9    4.7155e-7
    I2 HG2_R11   1.07935e-6
    I2 HG2_R13     4.724e-7
    I2 HG2_R15     2.178e-7
    I2 HG2_R17     1.321e-7
    I2 HG2_R19     1.019e-7
    I2 VG1_R1     9.228e-7
    I2 VG1_R3    1.0448e-6
    I2 VG1_R5    1.4222e-6
    I2 VG1_R7    2.4362e-6
    I2 VG1_R9     5.265e-6
    I2 VG1_R11   1.21992e-5
    I2 VG1_R13    5.3272e-6
    I2 VG1_R15     2.546e-6
    I2 VG1_R17    1.4856e-6
    I2 VG1_R19      1.13e-6
    I2 WL_L1_R07_C27 0.00015508  
    I2 WL_L1_R11_C27 0.00147282  
    I2 WL_L1_R15_C27 0.0001546   
    I2 GREATER_SUM  -1.        
    I3 OBJROW  -1.        
    I3 HG1_R1     5.545e-8
    I3 HG1_R3      5.88e-8
    I3 HG1_R5      6.79e-8
    I3 HG1_R7     8.665e-8
    I3 HG1_R9    1.2605e-7
    I3 HG1_R11       2.2e-7
    I3 HG1_R13     4.829e-7
    I3 HG1_R15    1.1377e-6
    I3 HG1_R17     5.043e-7
    I3 HG1_R19    2.7225e-7
    I3 HG2_R1     5.505e-8
    I3 HG2_R3     5.845e-8
    I3 HG2_R5     6.745e-8
    I3 HG2_R7     8.595e-8
    I3 HG2_R9     1.252e-7
    I3 HG2_R11     2.185e-7
    I3 HG2_R13     4.794e-7
    I3 HG2_R15   1.09095e-6
    I3 HG2_R17     5.006e-7
    I3 HG2_R19     2.705e-7
    I3 VG1_R1     6.098e-7
    I3 VG1_R3      6.47e-7
    I3 VG1_R5     7.492e-7
    I3 VG1_R7     9.672e-7
    I3 VG1_R9    1.3898e-6
    I3 VG1_R11    2.4324e-6
    I3 VG1_R13    5.4128e-6
    I3 VG1_R15   1.30162e-5
    I3 VG1_R17     5.665e-6
    I3 VG1_R19    3.0108e-6
    I3 WL_L1_R07_C27     6.596e-5
    I3 WL_L1_R11_C27 0.0001581   
    I3 WL_L1_R15_C27 0.00144856  
    I3 GREATER_SUM  -1.        
RHS
    RHS HG1_R1 -0.000101   
    RHS HG1_R3 -0.0001086  
    RHS HG1_R5 -0.0001914  
    RHS HG1_R7 -0.00050145 
    RHS HG1_R9 -0.00010195 
    RHS HG1_R11 -0.000106825
    RHS HG1_R13 -0.00039075 
    RHS HG1_R15 -0.001488225
    RHS HG1_R17 -0.000454525
    RHS HG1_R19 -0.0001027  
    RHS HG2_R1     6.325e-6
    RHS HG2_R3     -1.25e-6
    RHS HG2_R5     -8.36e-5
    RHS HG2_R7 -0.0003743  
    RHS HG2_R9       5.1e-6
    RHS HG2_R11     3.875e-6
    RHS HG2_R13 -0.000281875
    RHS HG2_R15 -0.00131705 
    RHS HG2_R17 -0.0003451  
    RHS HG2_R19      4.45e-6
    RHS VG1_R1 -0.0275823  
    RHS VG1_R3 -0.0276698  
    RHS VG1_R5 -0.0285938  
    RHS VG1_R7 -0.0319046  
    RHS VG1_R9 -0.0276212  
    RHS VG1_R11 -0.0276494  
    RHS VG1_R13 -0.0308431  
    RHS VG1_R15 -0.0428651  
    RHS VG1_R17 -0.0315422  
    RHS VG1_R19 -0.027619   
    RHS WL_L1_R07_C27 1.4052      
    RHS WL_L1_R11_C27 2.02797     
    RHS WL_L1_R15_C27 -0.01473    
BOUNDS
 UP BOUND W1 10000.      
 LO BOUND W2  -150.648115
 UP BOUND W2 9849.3518854
 LO BOUND W3  -10000.    
 UP BOUND W3 0.0         
 LO BOUND W4  -7473.26117
 UP BOUND W4 2526.7388273
 UP BOUND W5 10000.      
 LO BOUND I1  -597.17338 
 UP BOUND I1 9402.82662  
 LO BOUND I2  -133.88841 
 UP BOUND I2 9866.11159  
 LO BOUND I3  -1715.6278 
 UP BOUND I3 8284.3722   
ENDATA
